30
1 0 79
2 0 58
2 1 36
3 0 39
3 1 33
3 2 44
4 0 60
4 1 38
4 2 42
4 3 120
5 0 62
5 1 15
5 2 32
5 3 59
5 4 72
6 0 17
6 1 106
6 2 100
6 3 111
6 4 1
6 5 57
7 0 117
7 1 10
7 2 104
7 3 38
7 4 7
7 5 116
7 6 59
8 0 87
8 1 46
8 2 54
8 3 28
8 4 64
8 5 100
8 6 61
8 7 56
9 0 31
9 1 105
9 2 60
9 3 115
9 4 45
9 5 45
9 6 111
9 7 35
9 8 63
10 0 103
10 1 96
10 2 48
10 3 76
10 4 114
10 5 63
10 6 78
10 7 6
10 8 7
10 9 95
11 0 28
11 1 50
11 2 76
11 3 119
11 4 79
11 5 97
11 6 60
11 7 17
11 8 78
11 9 31
11 10 15
12 0 31
12 1 94
12 2 96
12 3 99
12 4 94
12 5 70
12 6 76
12 7 28
12 8 43
12 9 120
12 10 10
12 11 69
13 0 22
13 1 52
13 2 34
13 3 64
13 4 84
13 5 87
13 6 120
13 7 97
13 8 36
13 9 99
13 10 103
13 11 73
13 12 42
14 0 2
14 1 110
14 2 78
14 3 90
14 4 109
14 5 50
14 6 61
14 7 87
14 8 70
14 9 7
14 10 29
14 11 82
14 12 75
14 13 28
15 0 96
15 1 29
15 2 115
15 3 113
15 4 64
15 5 103
15 6 67
15 7 54
15 8 95
15 9 59
15 10 72
15 11 102
15 12 63
15 13 55
15 14 86
16 0 8
16 1 42
16 2 33
16 3 13
16 4 117
16 5 47
16 6 10
16 7 114
16 8 90
16 9 116
16 10 18
16 11 36
16 12 64
16 13 116
16 14 49
16 15 34
17 0 120
17 1 40
17 2 114
17 3 63
17 4 65
17 5 20
17 6 19
17 7 100
17 8 9
17 9 24
17 10 86
17 11 94
17 12 78
17 13 96
17 14 84
17 15 85
17 16 46
18 0 89
18 1 73
18 2 7
18 3 64
18 4 29
18 5 103
18 6 52
18 7 65
18 8 23
18 9 32
18 10 54
18 11 50
18 12 63
18 13 54
18 14 52
18 15 109
18 16 5
18 17 20
19 0 70
19 1 19
19 2 40
19 3 7
19 4 119
19 5 106
19 6 49
19 7 43
19 8 94
19 9 43
19 10 44
19 11 51
19 12 26
19 13 62
19 14 7
19 15 27
19 16 60
19 17 19
19 18 76
20 0 17
20 1 73
20 2 1
20 3 64
20 4 82
20 5 63
20 6 6
20 7 11
20 8 1
20 9 63
20 10 61
20 11 120
20 12 38
20 13 57
20 14 32
20 15 28
20 16 68
20 17 34
20 18 87
20 19 20
21 0 120
21 1 3
21 2 34
21 3 3
21 4 53
21 5 26
21 6 113
21 7 105
21 8 55
21 9 53
21 10 105
21 11 93
21 12 89
21 13 29
21 14 92
21 15 101
21 16 36
21 17 104
21 18 36
21 19 42
21 20 39
22 0 60
22 1 34
22 2 4
22 3 116
22 4 104
22 5 1
22 6 40
22 7 16
22 8 56
22 9 4
22 10 23
22 11 26
22 12 91
22 13 55
22 14 70
22 15 40
22 16 12
22 17 34
22 18 2
22 19 56
22 20 26
22 21 63
23 0 72
23 1 73
23 2 63
23 3 19
23 4 53
23 5 85
23 6 75
23 7 118
23 8 49
23 9 23
23 10 84
23 11 13
23 12 77
23 13 28
23 14 86
23 15 67
23 16 30
23 17 7
23 18 76
23 19 24
23 20 13
23 21 117
23 22 119
24 0 10
24 1 83
24 2 109
24 3 74
24 4 89
24 5 46
24 6 82
24 7 43
24 8 26
24 9 77
24 10 30
24 11 116
24 12 87
24 13 118
24 14 74
24 15 74
24 16 31
24 17 89
24 18 32
24 19 91
24 20 74
24 21 109
24 22 23
24 23 16
25 0 64
25 1 80
25 2 109
25 3 22
25 4 120
25 5 40
25 6 8
25 7 41
25 8 106
25 9 100
25 10 67
25 11 93
25 12 59
25 13 114
25 14 20
25 15 62
25 16 82
25 17 114
25 18 13
25 19 35
25 20 68
25 21 46
25 22 29
25 23 30
25 24 4
26 0 3
26 1 66
26 2 63
26 3 75
26 4 46
26 5 34
26 6 33
26 7 50
26 8 28
26 9 106
26 10 80
26 11 117
26 12 1
26 13 57
26 14 120
26 15 66
26 16 19
26 17 86
26 18 87
26 19 13
26 20 71
26 21 9
26 22 45
26 23 90
26 24 1
26 25 4
27 0 46
27 1 95
27 2 87
27 3 84
27 4 55
27 5 47
27 6 15
27 7 88
27 8 113
27 9 65
27 10 2
27 11 84
27 12 36
27 13 114
27 14 56
27 15 34
27 16 91
27 17 105
27 18 106
27 19 100
27 20 70
27 21 18
27 22 51
27 23 24
27 24 84
27 25 110
27 26 5
28 0 1
28 1 63
28 2 82
28 3 73
28 4 74
28 5 19
28 6 105
28 7 17
28 8 55
28 9 65
28 10 116
28 11 112
28 12 77
28 13 119
28 14 91
28 15 6
28 16 99
28 17 29
28 18 64
28 19 82
28 20 105
28 21 11
28 22 3
28 23 25
28 24 92
28 25 10
28 26 61
28 27 110
29 0 83
29 1 108
29 2 58
29 3 93
29 4 57
29 5 48
29 6 76
29 7 96
29 8 76
29 9 58
29 10 13
29 11 92
29 12 83
29 13 18
29 14 45
29 15 39
29 16 75
29 17 69
29 18 9
29 19 110
29 20 74
29 21 111
29 22 79
29 23 106
29 24 36
29 25 28
29 26 91
29 27 84
29 28 42
